c Source: TUDataset AIDS, graph #1663
c Original: n=11, m=13
c Augmented: +4 edges, n=11 -> m=17, circuit_rank=7
c Augmented to satisfy Eulerian condition (no parallel edges)
p sp 11
e 7 9
e 6 7
e 4 5
e 3 9
e 7 8
e 1 6
e 6 9
e 5 8
e 1 2
e 3 4
e 9 10
e 4 9
e 2 3
e 3 11
e 9 11
e 4 6
e 7 10
